p cnf 16 16
-1 -2 16 0 
-3 -2 -4 -5 16 0 
-6 16 0 
-6 -2 -4 16 0 
-7 16 0 
-8 16 0 
-9 16 0 
-10 -2 -6 16 0 
-11 -12 -6 16 0 
-13 -2 -6 16 0 
-11 -13 -6 16 0 
-6 -2 16 0 
-6 -2 -5 -4 16 0 
-6 -11 -2 -4 16 0 
-6 -2 -14 16 0 
-6 -15 16 0 
